data/rand/rand_072.gr
p tdp 15 52
1 2
1 3
1 6
1 7
1 8
1 9
1 10
1 11
1 12
1 14
2 3
2 5
2 11
2 12
2 13
2 14
2 15
3 10
3 12
3 13
3 15
4 5
4 6
4 8
4 10
4 12
4 14
5 6
5 9
5 10
5 11
5 13
5 15
6 7
6 9
6 12
6 14
6 15
7 8
7 9
7 11
7 13
8 10
9 10
10 12
10 14
10 15
11 12
11 14
11 15
12 13
14 15
