solutions/best/rand/rand_072.sol
10
0
7
2
7
1
4
10
4
6
15
2
5
3
12
14
